s td 15 46 60
b 1 1 2 3 4 5 6 7 8 9 10 11 12 13 15 17 19 21 22 24 25 27 28 32 35 36 38 39 40 42 43 44 45 47 48 49 50 51 52 53 54 55 56 57 58 59 60
b 2 2 3 4 5 6 7 8 9 10 11 12 13 15 17 19 21 22 24 25 27 28 31 32 35 36 38 39 40 42 43 44 45 47 48 49 50 51 52 53 54 55 56 57 58 59 60
b 3 2 3 4 5 6 7 8 9 10 11 12 13 15 17 19 21 22 24 25 27 28 29 31 32 35 36 38 40 42 43 44 45 47 48 49 50 51 52 54 55 56 57 58 59
b 4 2 3 4 5 6 7 8 9 10 11 12 13 15 17 19 21 22 25 27 28 29 30 31 32 35 36 38 42 43 44 45 47 48 49 50 51 52 54 55 56 57 58 59
b 5 2 4 5 6 8 9 10 11 12 14 15 19 25 30 31 35 38 44 45 47 49 50 54 56 58
b 6 4 6 8 9 11 13 15 17 19 21 22 27 28 29 30 31 35 36 42 44 45 46 50 51 52 55 56 57 59
b 7 2 4 5 6 7 11 12 15 17 25 27 31 32 36 40 41 42 52 53 59 60
b 8 1 4 5 6 9 11 13 15 16 17 19 21 22 24 25 27 28 32 35 36 38 39 42 43 44 48 49 50 51 52 53 54 55 56 57 58 60
b 9 1 4 6 9 11 13 15 16 17 24 27 28 35 36 37 42 43 44 48 49 51 53 54 56 57
b 10 1 2 3 4 5 6 7 8 9 10 11 12 13 15 17 19 21 22 24 25 27 28 34 35 36 38 39 40 42 43 44 45 47 48 49 50 51 52 53 54 55 56 57 58 59 60
b 11 1 4 5 9 10 11 12 13 18 21 24 27 28 34 36 40 45 48 51 52 54 55 58
b 12 1 3 4 6 7 8 9 10 11 12 13 15 17 19 20 21 22 24 25 27 28 34 35 36 38 39 40 42 43 44 47 49 51 52 53 54 55 56 57 58 59 60
b 13 1 3 4 6 7 8 9 10 11 13 15 17 20 21 22 24 25 27 28 33 34 35 36 38 39 40 42 43 44 47 51 52 53 54 55 57 58 59 60
b 14 1 3 4 7 9 10 11 13 15 17 20 21 22 23 24 27 28 33 35 36 39 43 54 55 57 58 59 60
b 15 5 6 8 12 15 19 22 24 26 27 28 34 36 39 43 45 48 49 50 51 52 53 54 55 56 57 59 60
1 2
1 8
1 10
2 3
2 7
3 4
4 5
4 6
8 9
10 11
10 12
10 15
12 13
13 14
